NAME          
ROWS
 N  OBJ
 L  c1
 L  c2
COLUMNS
    MARKER    'MARKER'                 'INTORG'
    x[1]      c1        281
    x[1]      c2        771
    x[1]      OBJ       -950
    x[2]      c1        159
    x[2]      c2        884
    x[2]      OBJ       -490
    x[3]      c1        174
    x[3]      c2        317
    x[3]      OBJ       -898
    x[4]      c1        352
    x[4]      c2        513
    x[4]      OBJ       -678
    x[5]      c1        935
    x[5]      c2        601
    x[5]      OBJ       -583
    x[6]      c1        570
    x[6]      c2        683
    x[6]      OBJ       -119
    x[7]      c1        504
    x[7]      c2        309
    x[7]      OBJ       -457
    x[8]      c1        270
    x[8]      c2        593
    x[8]      OBJ       -359
    x[9]      c1        95
    x[9]      c2        887
    x[9]      OBJ       -339
    x[10]     c1        849
    x[10]     c2        143
    x[10]     OBJ       -485
    x[11]     c1        566
    x[11]     c2        473
    x[11]     OBJ       -913
    x[12]     c1        411
    x[12]     c2        359
    x[12]     OBJ       -892
    x[13]     c1        28
    x[13]     c2        903
    x[13]     OBJ       -773
    x[14]     c1        32
    x[14]     c2        934
    x[14]     OBJ       -607
    x[15]     c1        356
    x[15]     c2        360
    x[15]     OBJ       -245
    x[16]     c1        610
    x[16]     c2        188
    x[16]     OBJ       -659
    x[17]     c1        799
    x[17]     c2        83
    x[17]     OBJ       -469
    x[18]     c1        793
    x[18]     c2        640
    x[18]     OBJ       -609
    x[19]     c1        425
    x[19]     c2        954
    x[19]     OBJ       -266
    x[20]     c1        879
    x[20]     c2        711
    x[20]     OBJ       -911
    x[21]     c1        144
    x[21]     c2        494
    x[21]     OBJ       -407
    x[22]     c1        846
    x[22]     c2        341
    x[22]     OBJ       -746
    x[23]     c1        746
    x[23]     c2        435
    x[23]     OBJ       -731
    x[24]     c1        172
    x[24]     c2        605
    x[24]     OBJ       -232
    x[25]     c1        842
    x[25]     c2        182
    x[25]     OBJ       -13
    x[26]     c1        969
    x[26]     c2        430
    x[26]     OBJ       -274
    x[27]     c1        876
    x[27]     c2        872
    x[27]     OBJ       -53
    x[28]     c1        490
    x[28]     c2        60
    x[28]     OBJ       -813
    x[29]     c1        752
    x[29]     c2        61
    x[29]     OBJ       -793
    x[30]     c1        46
    x[30]     c2        235
    x[30]     OBJ       -955
RHS
    rhs       c1        7486
    rhs       c2        7510
RANGES
BOUNDS
 LO bounds    x[1]      0
 PL bounds    x[1]
 LO bounds    x[2]      0
 PL bounds    x[2]
 LO bounds    x[3]      0
 PL bounds    x[3]
 LO bounds    x[4]      0
 PL bounds    x[4]
 LO bounds    x[5]      0
 PL bounds    x[5]
 LO bounds    x[6]      0
 PL bounds    x[6]
 LO bounds    x[7]      0
 PL bounds    x[7]
 LO bounds    x[8]      0
 PL bounds    x[8]
 LO bounds    x[9]      0
 PL bounds    x[9]
 LO bounds    x[10]     0
 PL bounds    x[10]
 LO bounds    x[11]     0
 PL bounds    x[11]
 LO bounds    x[12]     0
 PL bounds    x[12]
 LO bounds    x[13]     0
 PL bounds    x[13]
 LO bounds    x[14]     0
 PL bounds    x[14]
 LO bounds    x[15]     0
 PL bounds    x[15]
 LO bounds    x[16]     0
 PL bounds    x[16]
 LO bounds    x[17]     0
 PL bounds    x[17]
 LO bounds    x[18]     0
 PL bounds    x[18]
 LO bounds    x[19]     0
 PL bounds    x[19]
 LO bounds    x[20]     0
 PL bounds    x[20]
 LO bounds    x[21]     0
 PL bounds    x[21]
 LO bounds    x[22]     0
 PL bounds    x[22]
 LO bounds    x[23]     0
 PL bounds    x[23]
 LO bounds    x[24]     0
 PL bounds    x[24]
 LO bounds    x[25]     0
 PL bounds    x[25]
 LO bounds    x[26]     0
 PL bounds    x[26]
 LO bounds    x[27]     0
 PL bounds    x[27]
 LO bounds    x[28]     0
 PL bounds    x[28]
 LO bounds    x[29]     0
 PL bounds    x[29]
 LO bounds    x[30]     0
 PL bounds    x[30]
ENDATA
